NAME : tsp_476_sol.txt
COMMENT : OR-Tools Guided Local Search
TYPE : TOUR
DIMENSION : 131
COST : 8946
STATUS : ROUTING_SUCCESS
GAP : 0.00% (Reference Solution)
TOUR_SECTION
1
62
24
18
88
48
60
95
29
34
71
65
98
27
94
75
9
109
23
99
103
36
47
129
58
25
126
6
51
113
119
74
22
8
32
127
101
120
128
69
3
97
21
82
92
54
104
110
122
7
115
105
35
83
70
131
107
124
30
33
19
44
93
15
68
123
13
17
125
111
91
5
46
116
130
50
80
86
43
57
10
11
41
12
102
89
37
31
45
121
77
64
81
85
117
55
40
118
59
114
61
73
106
42
76
52
53
39
72
84
14
90
66
96
63
56
2
28
79
26
49
87
38
67
100
108
4
16
20
78
112
-1
